x
1
2
1
2
1
2
1
2
1
6
8
1
6
8
1
6
8
1
6
8
1
6
8
1
8
16
8
16
8
16
8
16
8
16
8
16
13
7
3
7
3
7
3
7
3
7
4
7
4
2
3
5
9
5
9
10
9
10
12
9
10
12
9
10
12
9
10
12
9
10
12
9
10
12
9
10
12
10
12
15
12
15
12
15
19
15
19
15
19
15
19
15
19
15
19
15
19
15
19
15
19
30
31
30
31
30
32
30
32
30
32
30
32
30
32
30
32
31
34
31
34
39
34
39
34
39
34
40
43
38
31
34
40
43
38
31
34
40
43
38
31
35
31
35
42
50
42
49
50
49
50
49
50
49
50
49
50
49
50
49
50
49
55
50
55
50
44
46
43
38
31
38
31
38
41
38
41
38
43
38
43
40
43
46
44
46
44
46
44
46
44
46
48
46
54
46
54
46
41
38
27
37
27
37
27
37
27
37
39
37
39
47
51
47
51
47
51
47
51
47
51
47
51
61
51
61
51
61
51
34
40
43
48
52
53
52
54
53
54
53
54
53
54
53
54
53
54
53
56
53
56
58
56
58
56
58
56
58
56
58
61
67
73
68
73
68
73
68
73
68
73
68
73
67
73
67
73
67
73
67
73
66
73
66
68
64
68
64
68
64
68
64
68
64
57
45
57
60
33
28
22
29
22
29
22
29
22
29
22
29
22
29
22
29
22
29
28
22
29
28
22
29
28
22
28
33
28
33
28
33
60
33
60
57
60
57
60
57
60
57
60
57
60
57
60
57
60
57
70
77
70
77
79
77
79
77
79
77
79
81
79
81
83
79
81
83
79
81
83
79
81
83
79
81
84
100
84
100
84
83
88
83
88
83
88
83
88
92
95
92
95
92
95
92
95
92
95
92
97
92
97
92
97
92
97
92
97
95
93
95
93
95
93
95
93
95
96
93
96
93
96
93
91
103
91
103
91
103
91
103
91
103
91
103
102
103
102
103
102
109
113
114
109
113
114
109
113
114
109
113
114
109
114
109
114
109
114
113
114
119
122
118
122
118
117
115
116
117
116
117
116
115
112
110
100
105
108
105
108
105
108
107
108
107
105
100
110
100
110
100
110
100
110
100
110
112
110
112
110
108
105
106
105
106
97
100
121
117
121
117
121
117
121
117
121
117
121
120
121
120
121
120
121
120
121
120
121
120
128
124
123
124
123
124
123
124
123
124
123
124
128
124
128
124
128
123
124
133
124
129
133
129
133
129
135
133
135
133
135
133
135
133
135
133
135
133
143
133
143
133
131
122
119
122
131
122
131
122
131
122
131
122
131
122
131
136
131
136
131
136
143
148
143
148
143
148
143
148
143
148
143
148
143
148
160
148
160
148
160
148
160
148
155
151
155
151
155
151
155
151
155
151
155
151
155
151
155
151
155
151
155
151
155
151
158
159
158
159
158
159
158
159
158
159
162
158
162
167
162
167
162
167
162
167
162
167
162
167
162
167
162
167
171
167
168
165
168
165
168
165
168
165
168
165
168
165
168
165
168
165
170
171
170
171
170
171
170
171
170
180
185
180
185
180
185
180
185
180
185
180
193
181
184
181
184
181
193
188
193
188
193
188
193
188
193
188
193
188
184
193
185
180
178
180
178
181
177
181
177
181
177
181
177
181
177
181
177
181
177
175
173
175
173
175
174
173
175
174
173
175
174
173
175
174
173
175
174
173
175
174
173
175
174
173
174
179
172
179
172
179
172
179
172
179
172
169
164
161
164
161
164
161
164
161
164
161
164
161
164
161
164
163
164
169
164
169
172
169
172
169
182
172
169
182
172
169
182
172
169
163
161
164
176
182
176
182
194
182
194
182
194
182
194
182
194
182
186
183
186
183
187
186
187
190
187
190
187
190
187
190
187
190
187
190
187
190
187
190
187
190
194
189
191
192
189
191
192
189
192
189
192
189
192
189
192
189
192
189
192
191
192
191
192
191
192
188
193
180
185
171
180
185
171
185
171
185
171
185
171
166
160
166
160
147
122
141
122
147
152
147
152
147
152
147
152
147
152
147
152
153
157
154
157
154
157
154
157
144
150
144
153
157
144
153
150
154
157
144
157
144
157
144
157
153
157
144
141
144
141
139
138
139
138
139
138
139
138
139
138
139
138
139
138
146
140
156
145
156
145
156
145
156
145
140
156
145
140
156
145
140
156
145
140
146
142
146
142
146
142
146
142
146
142
146
149
146
149
146
149
156
140
146
138
142
146
140
137
140
137
140
137
134
130
126
125
126
125
126
125
126
125
126
125
126
130
126
130
127
130
127
130
132
134
130
134
130
134
130
134
130
134
132
134
132
134
132
134
132
127
125
126
130
111
99
101
111
99
101
111
99
101
111
99
101
111
99
101
111
101
111
101
111
104
111
104
111
104
111
104
101
99
94
90
94
90
94
90
94
90
94
90
94
90
89
90
89
90
89
94
90
89
94
90
89
98
85
86
85
86
85
86
85
86
85
98
85
98
86
85
65
20
63
65
20
63
65
20
63
65
20
63
65
20
63
65
20
63
65
20
63
65
20
63
20
63
36
62
36
62
36
62
36
63
36
63
36
59
62
59
62
82
80
87
80
87
76
80
82
80
82
80
82
80
82
80
76
71
76
71
76
71
76
71
80
76
71
80
76
71
80
76
71
80
76
71
75
72
78
74
72
74
72
74
72
74
72
78
72
78
72
78
72
78
72
78
75
78
75
78
75
78
75
78
75
72
74
69
74
69
74
69
74
69
74
69
74
69
74
69
60
45
29
28
33
18
21
18
21
18
21
18
24
21
24
21
24
21
24
26
24
26
24
26
24
26
24
26
17
7
11
7
14
13
7
14
13
7
14
13
14
13
14
13
14
13
14
13
14
11
7
17
25
13
25
23
25
23
25
23
25
23
25
23
25
23
25
23
25
23
25
23
